5	15
10 49	7 49	4 51	3 45	0 47	2 44	1 56	9 50	13 47	12 53	5 41	14 49	8 41	11 49	6 46
3 54	11 54	1 52	7 51	13 57	2 57	10 50	0 42	4 49	6 46	8 51	9 51	5 53	12 47	14 52
10 47	3 56	9 44	11 53	2 54	7 47	0 48	14 48	12 46	6 48	5 48	4 47	1 42	8 44	13 50
12 58	4 48	5 56	9 47	13 56	11 50	3 47	10 51	1 53	7 58	0 47	6 47	2 55	14 51	8 53
14 39	8 50	9 46	6 50	12 49	4 50	0 51	10 45	3 51	11 60	13 52	5 45	1 44	7 52	2 48
